benchmarks/crosswords/mzn/crossword3_15.res
REGULAR
REGULAR
REGULAR
REGULAR
REGULAR
REGULAR
REGULAR
REGULAR
REGULAR
REGULAR
REGULAR
REGULAR
REGULAR
REGULAR
REGULAR
REGULAR
REGULAR
REGULAR
REGULAR
REGULAR
REGULAR
REGULAR
REGULAR
REGULAR
REGULAR
REGULAR
REGULAR
REGULAR
REGULAR
REGULAR
REGULAR
REGULAR
REGULAR
REGULAR
REGULAR
REGULAR
REGULAR
REGULAR
REGULAR
REGULAR
REGULAR
REGULAR
REGULAR
REGULAR
REGULAR
REGULAR
REGULAR
REGULAR
REGULAR
REGULAR
REGULAR
REGULAR
REGULAR
REGULAR
REGULAR
REGULAR
REGULAR
REGULAR
REGULAR
REGULAR
REGULAR
REGULAR
REGULAR
REGULAR
REGULAR
REGULAR
REGULAR
REGULAR
REGULAR
REGULAR
REGULAR
REGULAR
L = array1d(0..195, [1, 1, 14, 14, 15, 4, 1, 13, 18, 5, 9, 4, 5, 5, 19, 18, 1, 23, 9, 20, 14, 1, 1, 9, 12, 5, 7, 14, 1, 1, 22, 1, 20, 12, 15, 16, 20, 19, 5, 11, 14, 1, 18, 3, 5, 12, 1, 8, 19, 15, 12, 19, 12, 9, 13, 5, 18, 1, 3, 12, 1, 21, 19, 21, 19, 14, 12, 15, 3, 14, 9, 12, 1, 3, 1, 8, 20, 9, 20, 5, 12, 8, 3, 9, 18, 9, 4, 9, 3, 3, 15, 3, 1, 20, 5, 5, 3, 1, 18, 18, 5, 20, 1, 18, 1, 12, 1, 14, 1, 2, 11, 1, 5, 20, 19, 6, 5, 5, 2, 19, 5, 19, 14, 5, 19, 7, 14, 9, 25, 12, 16, 16, 1, 1, 18, 4, 14, 9, 19, 13, 5, 19, 14, 5, 20, 18, 1, 3, 19, 15, 19, 1, 5, 12, 14, 15, 4, 5, 3, 1, 13, 19, 16, 1, 18, 20, 14, 5, 5, 20, 9, 13, 18, 5, 20, 5, 16, 18, 5, 20, 21, 5, 4, 5, 8, 19, 1, 2, 1, 20, 1, 5, 8, 5, 18, 16]);
----------

%%  runtime:       3:36.606 (216606.229 ms)
%%  solvetime:     3:22.190 (202190.630 ms)
%%  solutions:     1
%%  variables:     10624
%%  propagators:   13056
%%  propagations:  890600790
%%  nodes:         406889
%%  failures:      203422
%%  restarts:      0
%%  peak depth:    67

GECODE_TUPLESET_MEM
GECODE_TUPLESET_MEM
GECODE_TUPLESET_MEM
GECODE_TUPLESET_MEM
GECODE_TUPLESET_MEM
GECODE_TUPLESET_MEM
GECODE_TUPLESET_MEM
GECODE_TUPLESET_MEM
GECODE_TUPLESET_MEM
GECODE_TUPLESET_MEM
GECODE_TUPLESET_MEM
GECODE_TUPLESET_MEM
GECODE_TUPLESET_MEM
GECODE_TUPLESET_MEM
GECODE_TUPLESET_MEM
GECODE_TUPLESET_MEM
GECODE_TUPLESET_MEM
GECODE_TUPLESET_MEM
GECODE_TUPLESET_MEM
GECODE_TUPLESET_MEM
GECODE_TUPLESET_MEM
GECODE_TUPLESET_MEM
GECODE_TUPLESET_MEM
GECODE_TUPLESET_MEM
GECODE_TUPLESET_MEM
GECODE_TUPLESET_MEM
GECODE_TUPLESET_MEM
GECODE_TUPLESET_MEM
GECODE_TUPLESET_MEM
GECODE_TUPLESET_MEM
GECODE_TUPLESET_MEM
GECODE_TUPLESET_MEM
GECODE_TUPLESET_MEM
GECODE_TUPLESET_MEM
GECODE_TUPLESET_MEM
GECODE_TUPLESET_MEM
GECODE_TUPLESET_MEM
GECODE_TUPLESET_MEM
GECODE_TUPLESET_MEM
GECODE_TUPLESET_MEM
GECODE_TUPLESET_MEM
GECODE_TUPLESET_MEM
GECODE_TUPLESET_MEM
GECODE_TUPLESET_MEM
GECODE_TUPLESET_MEM
GECODE_TUPLESET_MEM
GECODE_TUPLESET_MEM
GECODE_TUPLESET_MEM
GECODE_TUPLESET_MEM
GECODE_TUPLESET_MEM
GECODE_TUPLESET_MEM
GECODE_TUPLESET_MEM
GECODE_TUPLESET_MEM
GECODE_TUPLESET_MEM
GECODE_TUPLESET_MEM
GECODE_TUPLESET_MEM
GECODE_TUPLESET_MEM
GECODE_TUPLESET_MEM
GECODE_TUPLESET_MEM
GECODE_TUPLESET_MEM
GECODE_TUPLESET_MEM
GECODE_TUPLESET_MEM
GECODE_TUPLESET_MEM
GECODE_TUPLESET_MEM
GECODE_TUPLESET_MEM
GECODE_TUPLESET_MEM
GECODE_TUPLESET_MEM
GECODE_TUPLESET_MEM
GECODE_TUPLESET_MEM
GECODE_TUPLESET_MEM
GECODE_TUPLESET_MEM
GECODE_TUPLESET_MEM
L = array1d(0..195, [1, 3, 1, 20, 1, 12, 16, 1, 2, 21, 13, 13, 5, 19, 20, 15, 2, 1, 4, 9, 1, 8, 1, 22, 9, 1, 20, 15, 18, 3, 5, 18, 5, 2, 18, 1, 2, 21, 18, 21, 14, 4, 9, 11, 12, 1, 14, 1, 2, 4, 21, 12, 18, 1, 19, 16, 15, 1, 11, 9, 18, 1, 20, 5, 1, 4, 13, 9, 18, 5, 18, 19, 19, 8, 5, 12, 9, 1, 4, 5, 1, 4, 2, 5, 1, 20, 19, 9, 14, 15, 14, 21, 1, 16, 18, 15, 20, 20, 1, 23, 1, 19, 2, 1, 14, 13, 15, 12, 1, 18, 5, 14, 1, 3, 20, 13, 5, 14, 20, 19, 20, 1, 7, 5, 19, 3, 25, 3, 12, 1, 4, 5, 19, 15, 19, 1, 7, 5, 5, 5, 12, 3, 12, 1, 14, 2, 1, 4, 5, 14, 20, 15, 13, 5, 1, 5, 18, 9, 1, 12, 19, 21, 20, 20, 5, 18, 5, 18, 18, 5, 14, 5, 7, 5, 19, 12, 5, 1, 19, 9, 14, 7, 16, 18, 15, 19, 15, 4, 25, 1, 4, 4, 5, 14, 4, 19]);
----------

%%  runtime:       1.540 (1540.493 ms)
%%  solvetime:     0.614 (614.297 ms)
%%  solutions:     1
%%  variables:     10624
%%  propagators:   13056
%%  propagations:  860500
%%  nodes:         412
%%  failures:      178
%%  restarts:      0
%%  peak depth:    70

GECODE_TUPLESET_SPEED
GECODE_TUPLESET_SPEED
GECODE_TUPLESET_SPEED
GECODE_TUPLESET_SPEED
GECODE_TUPLESET_SPEED
GECODE_TUPLESET_SPEED
GECODE_TUPLESET_SPEED
GECODE_TUPLESET_SPEED
GECODE_TUPLESET_SPEED
GECODE_TUPLESET_SPEED
GECODE_TUPLESET_SPEED
GECODE_TUPLESET_SPEED
GECODE_TUPLESET_SPEED
GECODE_TUPLESET_SPEED
GECODE_TUPLESET_SPEED
GECODE_TUPLESET_SPEED
GECODE_TUPLESET_SPEED
GECODE_TUPLESET_SPEED
GECODE_TUPLESET_SPEED
GECODE_TUPLESET_SPEED
GECODE_TUPLESET_SPEED
GECODE_TUPLESET_SPEED
GECODE_TUPLESET_SPEED
GECODE_TUPLESET_SPEED
GECODE_TUPLESET_SPEED
GECODE_TUPLESET_SPEED
GECODE_TUPLESET_SPEED
GECODE_TUPLESET_SPEED
GECODE_TUPLESET_SPEED
GECODE_TUPLESET_SPEED
GECODE_TUPLESET_SPEED
GECODE_TUPLESET_SPEED
GECODE_TUPLESET_SPEED
GECODE_TUPLESET_SPEED
GECODE_TUPLESET_SPEED
GECODE_TUPLESET_SPEED
GECODE_TUPLESET_SPEED
GECODE_TUPLESET_SPEED
GECODE_TUPLESET_SPEED
GECODE_TUPLESET_SPEED
GECODE_TUPLESET_SPEED
GECODE_TUPLESET_SPEED
GECODE_TUPLESET_SPEED
GECODE_TUPLESET_SPEED
GECODE_TUPLESET_SPEED
GECODE_TUPLESET_SPEED
GECODE_TUPLESET_SPEED
GECODE_TUPLESET_SPEED
GECODE_TUPLESET_SPEED
GECODE_TUPLESET_SPEED
GECODE_TUPLESET_SPEED
GECODE_TUPLESET_SPEED
GECODE_TUPLESET_SPEED
GECODE_TUPLESET_SPEED
GECODE_TUPLESET_SPEED
GECODE_TUPLESET_SPEED
GECODE_TUPLESET_SPEED
GECODE_TUPLESET_SPEED
GECODE_TUPLESET_SPEED
GECODE_TUPLESET_SPEED
GECODE_TUPLESET_SPEED
GECODE_TUPLESET_SPEED
GECODE_TUPLESET_SPEED
GECODE_TUPLESET_SPEED
GECODE_TUPLESET_SPEED
GECODE_TUPLESET_SPEED
GECODE_TUPLESET_SPEED
GECODE_TUPLESET_SPEED
GECODE_TUPLESET_SPEED
GECODE_TUPLESET_SPEED
GECODE_TUPLESET_SPEED
GECODE_TUPLESET_SPEED
L = array1d(0..195, [1, 3, 1, 20, 1, 12, 16, 1, 2, 21, 13, 13, 5, 19, 20, 15, 2, 1, 4, 9, 1, 8, 1, 22, 9, 1, 20, 15, 18, 3, 5, 18, 5, 2, 18, 1, 2, 21, 18, 21, 14, 4, 9, 11, 12, 1, 14, 1, 2, 4, 21, 12, 18, 1, 19, 16, 15, 1, 11, 9, 18, 1, 20, 5, 1, 4, 13, 9, 18, 5, 18, 19, 19, 8, 5, 12, 9, 1, 4, 5, 1, 4, 2, 5, 1, 20, 19, 9, 14, 15, 14, 21, 1, 16, 18, 15, 20, 20, 1, 23, 1, 19, 2, 1, 14, 13, 15, 12, 1, 18, 5, 14, 1, 3, 20, 13, 5, 14, 20, 19, 20, 1, 7, 5, 19, 3, 25, 3, 12, 1, 4, 5, 19, 15, 19, 1, 7, 5, 5, 5, 12, 3, 12, 1, 14, 2, 1, 4, 5, 14, 20, 15, 13, 5, 1, 5, 18, 9, 1, 12, 19, 21, 20, 20, 5, 18, 5, 18, 18, 5, 14, 5, 7, 5, 19, 12, 5, 1, 19, 9, 14, 7, 16, 18, 15, 19, 15, 4, 25, 1, 4, 4, 5, 14, 4, 19]);
----------

%%  runtime:       1.683 (1683.637 ms)
%%  solvetime:     0.778 (778.481 ms)
%%  solutions:     1
%%  variables:     10624
%%  propagators:   13056
%%  propagations:  878104
%%  nodes:         412
%%  failures:      178
%%  restarts:      0
%%  peak depth:    70

COMPACT_TABLE
COMPACT_TABLE
COMPACT_TABLE
COMPACT_TABLE
COMPACT_TABLE
COMPACT_TABLE
COMPACT_TABLE
COMPACT_TABLE
COMPACT_TABLE
COMPACT_TABLE
COMPACT_TABLE
COMPACT_TABLE
COMPACT_TABLE
COMPACT_TABLE
COMPACT_TABLE
COMPACT_TABLE
COMPACT_TABLE
COMPACT_TABLE
COMPACT_TABLE
COMPACT_TABLE
COMPACT_TABLE
COMPACT_TABLE
COMPACT_TABLE
COMPACT_TABLE
COMPACT_TABLE
COMPACT_TABLE
COMPACT_TABLE
COMPACT_TABLE
COMPACT_TABLE
COMPACT_TABLE
COMPACT_TABLE
COMPACT_TABLE
COMPACT_TABLE
COMPACT_TABLE
COMPACT_TABLE
COMPACT_TABLE
COMPACT_TABLE
COMPACT_TABLE
COMPACT_TABLE
COMPACT_TABLE
COMPACT_TABLE
COMPACT_TABLE
COMPACT_TABLE
COMPACT_TABLE
COMPACT_TABLE
COMPACT_TABLE
COMPACT_TABLE
COMPACT_TABLE
COMPACT_TABLE
COMPACT_TABLE
COMPACT_TABLE
COMPACT_TABLE
COMPACT_TABLE
COMPACT_TABLE
COMPACT_TABLE
COMPACT_TABLE
COMPACT_TABLE
COMPACT_TABLE
COMPACT_TABLE
COMPACT_TABLE
COMPACT_TABLE
COMPACT_TABLE
COMPACT_TABLE
COMPACT_TABLE
COMPACT_TABLE
COMPACT_TABLE
COMPACT_TABLE
COMPACT_TABLE
COMPACT_TABLE
COMPACT_TABLE
COMPACT_TABLE
COMPACT_TABLE
L = array1d(0..195, [1, 3, 1, 20, 1, 12, 16, 1, 2, 21, 13, 13, 5, 19, 20, 15, 2, 1, 4, 9, 1, 8, 1, 22, 9, 1, 20, 15, 18, 3, 5, 18, 5, 2, 18, 1, 2, 21, 18, 21, 14, 4, 9, 11, 12, 1, 14, 1, 2, 4, 21, 12, 18, 1, 19, 16, 15, 1, 11, 9, 18, 1, 20, 5, 1, 4, 13, 9, 18, 5, 18, 19, 19, 8, 5, 12, 9, 1, 4, 5, 1, 4, 2, 5, 1, 20, 19, 9, 14, 15, 14, 21, 1, 16, 18, 15, 20, 20, 1, 23, 1, 19, 2, 1, 14, 13, 15, 12, 1, 18, 5, 14, 1, 3, 20, 13, 5, 14, 20, 19, 20, 1, 7, 5, 19, 3, 25, 3, 12, 1, 4, 5, 19, 15, 19, 1, 7, 5, 5, 5, 12, 3, 12, 1, 14, 2, 1, 4, 5, 14, 20, 15, 13, 5, 1, 5, 18, 9, 1, 12, 19, 21, 20, 20, 5, 18, 5, 18, 18, 5, 14, 5, 7, 5, 19, 12, 5, 1, 19, 9, 14, 7, 16, 18, 15, 19, 15, 4, 25, 1, 4, 4, 5, 14, 4, 19]);
----------

%%  runtime:       1.526 (1526.468 ms)
%%  solvetime:     0.217 (217.479 ms)
%%  solutions:     1
%%  variables:     10624
%%  propagators:   13056
%%  propagations:  878218
%%  nodes:         412
%%  failures:      178
%%  restarts:      0
%%  peak depth:    70

